\ENCODING=ISO-8859-1
\Problem name: ilog.cplex

Minimize
 obj: x1 + x2 + x3 + x4 + x5 + x6 + x7 + x8 + x9 + x10 + x11 + x12 + x13 + x14
      + x15
Subject To
 c1:  x1 + x31 + x32 + x33 + x34 + x35 + x36 + x37 + x38 + x39 + x40 + x41
      + x42 + x43 + x44 + x45 + x46 + x47 + x48 + x49 + x50 + x51 + x52 + x53
      + x54 + x55 + x56 + x57 + x58 + x59 + x60 + x61 + x62 + x63 + x64 + x65
      + x66 + x67 + x68 + x69 + x70 + x71 + x72 + x73 + x74 + x75 + x76 + x77
      + x78 + x79 + x80 + x81 + x82 + x83 + x84 + x85 + x86 + x87 + x88 + x89
      + x90 + x91 + x92 + x93 + x94 + x95 + x96 + x97 + x98 + x99 + x100 + x101
      + x102 + x103 + x104 + x105 + x106 + x107 + x108 + x109 + x110 + x111
      + x112 + x113 + x114 + x115 + x116 + x117 + x118 + x119 + x120 + x121
      + x122 + x123 + x124 + x125 + x126 + x127 + x128 + x129 + x130 + x131
      + x132 + x133 + x134 + x135 + x136 + x137 + x138 + x139 + x140 + x141
      + x142 + x143 + x144 + x145 + x146 + x147 + x148 + x149 + x150 + x151
      + x152 + x153 + x154 + x155 + x156 + x157 + x158 + x159 + x160 + x161
      + x162 + x163 + x164 + x165 + x166 + x167 + x168 + x169 + x170 + x171
      + x172 + x173 + x174 + x175 + x176 + x177 + x178 + x179 + x180 + x181
      + x182 + x183 + x184 + x185 + x186 + x187 + x188 + x189 + x190 + x191
      + x192 + x193 + x194 + x195 + x196 + x197 + x198 + x199 + x200 + x201
      + x202 + x203 + x204 + x205 + x206 + x207 + x208 + x209 + x210 + x211
      + x212 + x213 + x214 + x215 + x216 + x217 + x218 + x219 + x220 + x221
      + x222 + x223 + x224 + x225 + x226 + x227 + x228 + x229 + x230 + x231
      + x232 + x233 + x234 + x235 + x236 + x237 + x238 + x239 + x240 + x241
      + x242 + x243 + x244 + x245 + x246 + x247 + x248 + x249 + x250 + x251
      + x252 + x253 + x254 + x255 + x256 + x257 + x258 + x259 + x260 + x261
      + x262 + x263 + x264 + x265 + x266 + x267 + x268 + x269 + x270 + x271
      + x272 + x273 + x274 + x275 + x276 + x277 + x278 + x279 + x280 + x281
      + x282 + x283 + x284 + x285 + x286 + x287 + x288 + x289 + x290 + x291
      + x292 + x293 + x294 + x295 + x296 + x297 + x298 + x299 + x300 + x301
      + x302 + x303 + x304 + x305 + x306 + x307 + x308 + x309 + x310 + x311
      + x312 + x313 + x314 + x315 + x316 + x317 + x318 + x319 + x320 + x321
      + x322 + x323 + x324 + x325 + x326 + x327 + x328 + x329 + x330 + x331
      + x332 + x333 + x334 + x335 + x336 + x337 + x338 + x339 + x340 + x341
      + x342 + x343 + x344 + x345 + x346 + x347 + x348 + x349 + x350 + x351
      + x352 + x353 + x354 + x355 + x356 + x357 + x358 + x359 + x360 + x361
      + x362 + x363 + x364 + x365 + x366 + x367 + x368 + x369 + x370 + x371
      + x372 + x373 + x374 + x375 + x376 + x377 + x378 + x379 + x380 + x381
      + x382 + x383 + x384 + x385 + x386 + x387 + x388 + x389 + x390 + x391
      + x392 + x393 + x394 + x395 + x396 + x397 + x398 + x399 + x400 + x401
      + x402 + x403 + x404 + x405 + x406 + x407 + x408 + x409 + x410 + x411
      + x412 + x413 + x414 + x415 + x416 + x417 + x418 + x419 + x420 + x421
      + x422 + x423 + x424 + x425 + x426 + x427 + x428 + x429 + x430 + x431
      + x432 + x433 + x434 + x435 + x436 + x437 + x438 + x439 + x440 + x441
      + x442 + x443 + x444 + x445 + x446 + x447 + x448 + x449 + x450 + x451
      + x452 + x453 + x454 + x455 + x456 + x457 + x458 + x459 + x460 + x461
      + x462 + x463 + x464 + x465 + x466  = 1
 c3:  x2 + x31 + x32 + x33 + x35 + x36 + x37 + x51 + x58 + x64 + x74 + x102
      + x103 + x105 + x112 + x118 + x131 + x132 + x139 + x140 + x141 + x142
      + x143 + x144 + x145 + x150 + x151 + x153 + x155 + x157 + x158 + x159
      + x160 + x166 + x167 + x169 + x170 + x172 + x174 + x176 + x177 + x178
      + x179 + x181 + x182 + x190 + x194 + x195 + x196 + x197 + x198 + x199
      + x200 + x201 + x207 + x209 + x210 + x215 + x218 + x219 + x222 + x226
      + x232 + x234 + x235 + x236 + x238 + x240 + x242 + x249 + x252 + x254
      + x271 + x279 + x280 + x281 + x282 + x285 + x286 + x288 + x289 + x295
      + x297 + x298 + x299 + x300 + x302 + x303 + x304 + x309 + x311 + x317
      + x319 + x320 + x321 + x325 + x326 + x327 + x329 + x330 + x331 + x333
      + x334 + x338 + x341 + x343 + x344 + x347 + x348 + x353 + x354 + x355
      + x356 + x358 + x359 + x360 + x361 + x362 + x366 + x367 + x368 + x369
      + x375 + x376 + x378 + x381 + x383 + x384 + x386 + x387 + x388 + x389
      + x390 + x391 + x392 + x396 + x398 + x399 + x400 + x401 + x404 + x405
      + x406 + x407 + x411 + x413 + x414 + x415 + x416 + x417 + x427 + x428
      + x429 + x433 + x436 + x440 + x450 + x452 + x456 + x458 + x460 + x463
      + x903 + x904 + x905 + x906 + x907 + x908 + x909 + x910 + x911 + x912
      + x913  = 1
 c5:  x3 + x31 + x46 + x49 + x50 + x51 + x55 + x72 + x85 + x87 + x89 + x96
      + x100 + x101 + x103 + x120 + x133 + x139 + x142 + x144 + x153 + x154
      + x157 + x159 + x179 + x181 + x186 + x198 + x201 + x202 + x212 + x213
      + x215 + x229 + x231 + x233 + x234 + x244 + x246 + x247 + x258 + x279
      + x280 + x316 + x320 + x321 + x349 + x361 + x365 + x389 + x410 + x428
      + x441 + x914 + x915 + x916 + x917 + x918 + x919 + x920 + x921  = 1
 c7:  x4 + x32 + x33 + x34 + x35 + x37 + x41 + x43 + x47 + x53 + x57 + x58
      + x59 + x60 + x64 + x66 + x67 + x68 + x69 + x70 + x74 + x78 + x80 + x83
      + x86 + x88 + x90 + x92 + x93 + x95 + x98 + x102 + x106 + x107 + x108
      + x116 + x122 + x123 + x124 + x125 + x128 + x130 + x131 + x132 + x136
      + x137 + x146 + x148 + x149 + x152 + x156 + x161 + x162 + x166 + x168
      + x175 + x185 + x188 + x189 + x190 + x202 + x203 + x204 + x205 + x207
      + x209 + x211 + x212 + x216 + x217 + x218 + x223 + x225 + x228 + x230
      + x231 + x237 + x241 + x242 + x246 + x252 + x253 + x261 + x263 + x264
      + x266 + x272 + x278 + x281 + x282 + x291 + x292 + x305 + x307 + x312
      + x314 + x315 + x318 + x319 + x323 + x324 + x328 + x329 + x334 + x335
      + x337 + x338 + x345 + x350 + x351 + x352 + x354 + x355 + x363 + x364
      + x366 + x370 + x372 + x373 + x375 + x379 + x381 + x382 + x402 + x407
      + x411 + x412 + x414 + x416 + x419 + x425 + x906 + x907 + x908 + x930
      + x931 + x932 + x933 + x934 + x935 + x936 + x937 + x938 + x939 + x940
      + x941 + x942  = 1
 c9:  x5 + x45 + x47 + x48 + x61 + x63 + x65 + x66 + x126 + x130 + x145 + x160
      + x167 + x183 + x184 + x195 + x200 + x206 + x208 + x214 + x217 + x221
      + x227 + x232 + x248 + x250 + x251 + x262 + x278 + x284 + x292 + x294
      + x299 + x300 + x343 + x369 + x379 + x402 + x415 + x433 + x438 + x439
      + x442 + x905 + x932 + x937 + x956 + x957 + x958 + x959  = 1
 c11: x6 + x37 + x40 + x45 + x57 + x58 + x59 + x67 + x68 + x75 + x81 + x83
      + x84 + x86 + x87 + x88 + x89 + x91 + x93 + x108 + x115 + x125 + x128
      + x130 + x137 + x144 + x145 + x146 + x150 + x158 + x161 + x165 + x166
      + x171 + x174 + x181 + x182 + x185 + x189 + x190 + x206 + x207 + x209
      + x223 + x232 + x233 + x240 + x252 + x257 + x258 + x261 + x264 + x265
      + x269 + x271 + x272 + x277 + x282 + x289 + x306 + x307 + x311 + x316
      + x318 + x329 + x337 + x338 + x341 + x345 + x349 + x352 + x367 + x381
      + x382 + x391 + x395 + x412 + x432 + x441 + x451 + x459 + x906 + x907
      + x908 + x931 + x937 + x938 + x939 + x942 + x964  = 1
 c13: x7 + x39 + x91 + x96 + x127 + x140 + x143 + x148 + x150 + x168 + x175
      + x186 + x187 + x193 + x208 + x219 + x220 + x286 + x290 + x301 + x308
      + x324 + x326 + x351 + x376 + x396 + x417 + x427 + x916 + x936 + x938
      + x939 + x941 + x964 + x966 + x967 + x968 + x969 + x970 + x971 + x972
       = 1
 c15: x8 + x33 + x34 + x38 + x41 + x47 + x49 + x53 + x56 + x63 + x65 + x66
      + x70 + x74 + x78 + x84 + x90 + x92 + x95 + x98 + x102 + x106 + x109
      + x113 + x117 + x118 + x121 + x122 + x128 + x129 + x133 + x136 + x156
      + x163 + x171 + x177 + x178 + x182 + x202 + x203 + x204 + x216 + x224
      + x225 + x231 + x234 + x235 + x241 + x242 + x246 + x247 + x248 + x253
      + x256 + x262 + x266 + x275 + x292 + x295 + x296 + x299 + x301 + x304
      + x305 + x310 + x312 + x318 + x319 + x323 + x325 + x335 + x339 + x342
      + x343 + x346 + x350 + x353 + x355 + x356 + x363 + x366 + x371 + x372
      + x375 + x377 + x378 + x379 + x390 + x392 + x399 + x400 + x401 + x406
      + x408 + x410 + x419 + x431 + x437 + x442 + x465 + x914 + x919 + x934
      + x935 + x956 + x957 + x980 + x981 + x982 + x983 + x984  = 1
 c17: x9 + x33 + x34 + x35 + x36 + x39 + x40 + x41 + x44 + x47 + x53 + x54
      + x62 + x77 + x78 + x79 + x83 + x90 + x107 + x113 + x115 + x117 + x135
      + x143 + x146 + x148 + x158 + x162 + x163 + x165 + x173 + x174 + x175
      + x177 + x183 + x187 + x191 + x203 + x213 + x216 + x222 + x224 + x225
      + x226 + x236 + x237 + x245 + x249 + x253 + x266 + x270 + x278 + x285
      + x287 + x291 + x293 + x294 + x308 + x312 + x323 + x324 + x351 + x357
      + x359 + x383 + x385 + x388 + x420 + x421 + x430 + x432 + x435 + x439
      + x440 + x448 + x905 + x930 + x934 + x968 + x970 + x990 + x991 + x992
      + x993 + x994  = 1
 c19: x10 + x35 + x37 + x38 + x39 + x40 + x41 + x42 + x43 + x44 + x46 + x48
      + x49 + x50 + x54 + x56 + x60 + x68 + x73 + x75 + x77 + x78 + x94 + x97
      + x98 + x102 + x104 + x108 + x109 + x110 + x112 + x124 + x134 + x136
      + x137 + x146 + x147 + x148 + x151 + x153 + x154 + x155 + x156 + x161
      + x162 + x163 + x165 + x166 + x168 + x170 + x175 + x176 + x179 + x190
      + x196 + x202 + x203 + x205 + x210 + x212 + x221 + x222 + x224 + x225
      + x226 + x230 + x233 + x236 + x238 + x239 + x240 + x241 + x242 + x245
      + x250 + x256 + x257 + x259 + x260 + x261 + x263 + x268 + x278 + x285
      + x286 + x287 + x290 + x292 + x294 + x295 + x306 + x314 + x319 + x330
      + x332 + x335 + x337 + x340 + x341 + x342 + x344 + x346 + x347 + x359
      + x363 + x364 + x365 + x366 + x370 + x371 + x372 + x374 + x375 + x376
      + x378 + x386 + x388 + x390 + x394 + x397 + x398 + x399 + x403 + x405
      + x407 + x408 + x409 + x418 + x419 + x420 + x421 + x422 + x423 + x424
      + x426 + x429 + x434 + x436 + x444 + x445 + x446 + x447 + x450 + x452
      + x457 + x462 + x903 + x910 + x912 + x930 + x939 + x956 + x1000 + x1001
      + x1002  = 1
 c21: x11 + x37 + x42 + x43 + x45 + x48 + x52 + x53 + x54 + x55 + x57 + x58
      + x59 + x60 + x61 + x62 + x63 + x65 + x67 + x68 + x69 + x70 + x71 + x72
      + x73 + x74 + x75 + x76 + x77 + x80 + x81 + x83 + x84 + x85 + x86 + x88
      + x91 + x92 + x93 + x94 + x95 + x98 + x100 + x101 + x105 + x109 + x110
      + x114 + x115 + x116 + x117 + x119 + x120 + x121 + x123 + x124 + x126
      + x128 + x129 + x131 + x132 + x133 + x137 + x138 + x140 + x141 + x142
      + x145 + x149 + x151 + x155 + x161 + x162 + x166 + x167 + x169 + x171
      + x172 + x173 + x176 + x185 + x188 + x189 + x190 + x191 + x197 + x200
      + x201 + x204 + x205 + x206 + x207 + x209 + x211 + x214 + x216 + x217
      + x218 + x219 + x220 + x223 + x228 + x229 + x232 + x240 + x241 + x243
      + x248 + x253 + x254 + x255 + x257 + x259 + x260 + x261 + x262 + x263
      + x264 + x265 + x266 + x267 + x268 + x269 + x270 + x271 + x272 + x273
      + x274 + x276 + x277 + x281 + x283 + x284 + x289 + x301 + x302 + x306
      + x308 + x309 + x312 + x313 + x318 + x323 + x324 + x325 + x328 + x329
      + x330 + x334 + x336 + x337 + x338 + x339 + x341 + x344 + x345 + x347
      + x353 + x355 + x363 + x365 + x367 + x368 + x370 + x371 + x372 + x373
      + x381 + x382 + x384 + x385 + x389 + x391 + x393 + x395 + x397 + x403
      + x405 + x407 + x412 + x413 + x416 + x422 + x423 + x425 + x426 + x429
      + x443 + x445 + x449 + x451 + x455 + x456 + x464 + x466 + x904 + x906
      + x907 + x908 + x913 + x914 + x918 + x930 + x931 + x932 + x934 + x937
      + x938 + x940 + x990 + x1000 + x1002 + x1006  = 1
 c23: x12 + x44 + x50 + x51 + x57 + x59 + x64 + x67 + x80 + x81 + x82 + x85
      + x90 + x97 + x105 + x106 + x111 + x112 + x113 + x123 + x124 + x126
      + x130 + x136 + x152 + x155 + x160 + x164 + x178 + x180 + x187 + x188
      + x192 + x195 + x197 + x221 + x228 + x235 + x237 + x239 + x243 + x249
      + x250 + x252 + x256 + x265 + x270 + x272 + x273 + x287 + x290 + x297
      + x311 + x314 + x315 + x317 + x322 + x326 + x332 + x335 + x336 + x342
      + x346 + x357 + x364 + x386 + x393 + x397 + x398 + x402 + x403 + x404
      + x413 + x416 + x418 + x425 + x435 + x437 + x453 + x454 + x916 + x933
      + x964 + x969 + x982 + x1000 + x1008  = 1
 c25: x13 + x42 + x52 + x69 + x73 + x80 + x97 + x99 + x131 + x138 + x141 + x149
      + x152 + x164 + x169 + x172 + x180 + x184 + x193 + x199 + x211 + x214
      + x218 + x223 + x238 + x251 + x259 + x260 + x263 + x276 + x281 + x283
      + x288 + x296 + x298 + x303 + x305 + x310 + x322 + x354 + x360 + x377
      + x380 + x387 + x409 + x411 + x903 + x909 + x935 + x936 + x940 + x966
      + x981 + x991 + x992 + x1009 + x1010 + x1011 + x1012  = 1
 c27: x14 + x32 + x34 + x36 + x38 + x46 + x52 + x55 + x58 + x64 + x69 + x70
      + x72 + x76 + x95 + x100 + x101 + x104 + x106 + x114 + x129 + x134 + x147
      + x151 + x152 + x161 + x164 + x176 + x189 + x191 + x194 + x198 + x211
      + x212 + x215 + x230 + x231 + x237 + x239 + x244 + x245 + x255 + x267
      + x269 + x276 + x282 + x283 + x284 + x291 + x304 + x309 + x313 + x317
      + x321 + x333 + x336 + x344 + x347 + x350 + x362 + x369 + x370 + x380
      + x383 + x385 + x392 + x400 + x406 + x425 + x430 + x436 + x438 + x443
      + x444 + x447 + x449 + x457 + x458 + x461 + x911 + x918 + x1001 + x1006
       = 1
 c29: x15 + x32 + x43 + x60 + x71 + x79 + x82 + x94 + x99 + x104 + x107 + x110
      + x111 + x114 + x116 + x119 + x122 + x127 + x132 + x134 + x135 + x147
      + x170 + x192 + x194 + x196 + x210 + x227 + x274 + x275 + x293 + x315
      + x327 + x328 + x331 + x340 + x348 + x358 + x373 + x374 + x394 + x414
      + x434 + x904 + x915 + x917 + x933 + x967 + x980 + x1006 + x1010 + x1011
       = 1
 c31: x31 + x32 + x33 + x34 + x35 + x36 + x37 + x38 + x39 + x40 + x41 + x42
      + x43 + x44 + x45 + x46 + x47 + x48 + x49 + x50 + x51 + x52 + x53 + x54
      + x55 + x56 + x57 + x58 + x59 + x60 + x61 + x62 + x63 + x64 + x65 + x66
      + x67 + x68 + x69 + x70 + x71 + x72 + x73 + x74 + x75 + x76 + x77 + x78
      + x79 + x80 + x81 + x82 + x83 + x84 + x85 + x86 + x87 + x88 + x89 + x90
      + x91 + x92 + x93 + x94 + x95 + x96 + x97 + x98 + x99 + x100 + x101
      + x102 + x103 + x104 + x105 + x106 + x107 + x108 + x109 + x110 + x111
      + x112 + x113 + x114 + x115 + x116 + x117 + x118 + x119 + x120 + x121
      + x122 + x123 + x124 + x125 + x126 + x127 + x128 + x129 + x130 + x131
      + x132 + x133 + x134 + x135 + x136 + x137 + x138 + x139 + x140 + x141
      + x142 + x143 + x144 + x145 + x146 + x147 + x148 + x149 + x150 + x151
      + x152 + x153 + x154 + x155 + x156 + x157 + x158 + x159 + x160 + x161
      + x162 + x163 + x164 + x165 + x166 + x167 + x168 + x169 + x170 + x171
      + x172 + x173 + x174 + x175 + x176 + x177 + x178 + x179 + x180 + x181
      + x182 + x183 + x184 + x185 + x186 + x187 + x188 + x189 + x190 + x191
      + x192 + x193 + x194 + x195 + x196 + x197 + x198 + x199 + x200 + x201
      + x202 + x203 + x204 + x205 + x206 + x207 + x208 + x209 + x210 + x211
      + x212 + x213 + x214 + x215 + x216 + x217 + x218 + x219 + x220 + x221
      + x222 + x223 + x224 + x225 + x226 + x227 + x228 + x229 + x230 + x231
      + x232 + x233 + x234 + x235 + x236 + x237 + x238 + x903 + x904 + x905
      + x914 + x915 + x916 + x930 + x931 + x932 + x933 + x934 + x935 + x936
      + x964 + x990 + x1006 + x1009 + x1010 + x1011 <= 1
 c33: x239 + x240 + x241 + x242 + x243 + x244 + x245 + x246 + x247 + x248
      + x249 + x250 + x251 + x252 + x253 + x254 + x255 + x256 + x257 + x258
      + x259 + x260 + x261 + x262 + x263 + x264 + x265 + x266 + x267 + x268
      + x269 + x270 + x271 + x272 + x273 + x274 + x275 + x276 + x277 + x278
      + x279 + x280 + x281 + x282 + x283 + x284 + x285 + x286 + x287 + x288
      + x289 + x290 + x291 + x292 + x293 + x294 + x295 + x296 + x297 + x298
      + x299 + x300 + x301 + x302 + x303 + x304 + x305 + x306 + x307 + x308
      + x309 + x310 + x311 + x312 + x313 + x314 + x315 + x316 + x317 + x318
      + x319 + x320 + x321 + x322 + x323 + x324 + x325 + x326 + x327 + x328
      + x329 + x330 + x331 + x332 + x333 + x334 + x335 + x336 + x337 + x338
      + x339 + x340 + x341 + x342 + x343 + x344 + x345 + x346 + x347 + x348
      + x349 + x350 + x351 + x352 + x906 + x917 + x937 + x938 + x939 + x940
      + x956 + x966 + x967 + x980 + x981 + x991 <= 1
 c35: x353 + x354 + x355 + x356 + x357 + x358 + x359 + x360 + x361 + x362
      + x363 + x364 + x365 + x366 + x367 + x368 + x369 + x370 + x371 + x372
      + x373 + x374 + x375 + x376 + x377 + x378 + x379 + x380 + x381 + x382
      + x383 + x384 + x385 + x386 + x387 + x388 + x389 + x390 + x391 + x392
      + x393 + x394 + x395 + x396 + x397 + x398 + x399 + x400 + x401 + x402
      + x403 + x404 + x405 + x406 + x407 + x907 + x918 + x919 + x968 + x992
      <= 1
 c37: x408 + x409 + x410 + x411 + x412 + x413 + x414 + x415 + x416 + x417
      + x418 + x419 + x420 + x421 + x422 + x423 + x424 + x425 + x426 + x427
      + x428 + x429 + x430 + x431 + x432 + x433 + x434 + x435 + x436 + x437
      + x438 + x439 + x440 + x441 + x442 + x908 + x909 + x957 + x969 + x970
      + x982 + x1000 <= 1
 c39: x443 + x444 + x445 + x446 + x447 + x448 + x449 + x450 + x451 + x452
      + x453 + x454 + x455 + x456 + x457 + x458 + x459 + x910 + x911 + x912
      + x913 + x920 + x941 + x958 + x971 + x983 + x993 + x1001 + x1002 + x1012
      <= 1
 c41: x460 + x461 + x462 + x463 + x464 + x465 + x466 + x921 + x942 + x959
      + x972 + x984 + x994 + x1008 <= 1
Bounds
 0 <= x1 <= 1
 0 <= x2 <= 1
 0 <= x3 <= 1
 0 <= x4 <= 1
 0 <= x5 <= 1
 0 <= x6 <= 1
 0 <= x7 <= 1
 0 <= x8 <= 1
 0 <= x9 <= 1
 0 <= x10 <= 1
 0 <= x11 <= 1
 0 <= x12 <= 1
 0 <= x13 <= 1
 0 <= x14 <= 1
 0 <= x15 <= 1
 0 <= x31 <= 1
 0 <= x32 <= 1
 0 <= x33 <= 1
 0 <= x34 <= 1
 0 <= x35 <= 1
 0 <= x36 <= 1
 0 <= x37 <= 1
 0 <= x38 <= 1
 0 <= x39 <= 1
 0 <= x40 <= 1
 0 <= x41 <= 1
 0 <= x42 <= 1
 0 <= x43 <= 1
 0 <= x44 <= 1
 0 <= x45 <= 1
 0 <= x46 <= 1
 0 <= x47 <= 1
 0 <= x48 <= 1
 0 <= x49 <= 1
 0 <= x50 <= 1
 0 <= x51 <= 1
 0 <= x52 <= 1
 0 <= x53 <= 1
 0 <= x54 <= 1
 0 <= x55 <= 1
 0 <= x56 <= 1
 0 <= x57 <= 1
 0 <= x58 <= 1
 0 <= x59 <= 1
 0 <= x60 <= 1
 0 <= x61 <= 1
 0 <= x62 <= 1
 0 <= x63 <= 1
 0 <= x64 <= 1
 0 <= x65 <= 1
 0 <= x66 <= 1
 0 <= x67 <= 1
 0 <= x68 <= 1
 0 <= x69 <= 1
 0 <= x70 <= 1
 0 <= x71 <= 1
 0 <= x72 <= 1
 0 <= x73 <= 1
 0 <= x74 <= 1
 0 <= x75 <= 1
 0 <= x76 <= 1
 0 <= x77 <= 1
 0 <= x78 <= 1
 0 <= x79 <= 1
 0 <= x80 <= 1
 0 <= x81 <= 1
 0 <= x82 <= 1
 0 <= x83 <= 1
 0 <= x84 <= 1
 0 <= x85 <= 1
 0 <= x86 <= 1
 0 <= x87 <= 1
 0 <= x88 <= 1
 0 <= x89 <= 1
 0 <= x90 <= 1
 0 <= x91 <= 1
 0 <= x92 <= 1
 0 <= x93 <= 1
 0 <= x94 <= 1
 0 <= x95 <= 1
 0 <= x96 <= 1
 0 <= x97 <= 1
 0 <= x98 <= 1
 0 <= x99 <= 1
 0 <= x100 <= 1
 0 <= x101 <= 1
 0 <= x102 <= 1
 0 <= x103 <= 1
 0 <= x104 <= 1
 0 <= x105 <= 1
 0 <= x106 <= 1
 0 <= x107 <= 1
 0 <= x108 <= 1
 0 <= x109 <= 1
 0 <= x110 <= 1
 0 <= x111 <= 1
 0 <= x112 <= 1
 0 <= x113 <= 1
 0 <= x114 <= 1
 0 <= x115 <= 1
 0 <= x116 <= 1
 0 <= x117 <= 1
 0 <= x118 <= 1
 0 <= x119 <= 1
 0 <= x120 <= 1
 0 <= x121 <= 1
 0 <= x122 <= 1
 0 <= x123 <= 1
 0 <= x124 <= 1
 0 <= x125 <= 1
 0 <= x126 <= 1
 0 <= x127 <= 1
 0 <= x128 <= 1
 0 <= x129 <= 1
 0 <= x130 <= 1
 0 <= x131 <= 1
 0 <= x132 <= 1
 0 <= x133 <= 1
 0 <= x134 <= 1
 0 <= x135 <= 1
 0 <= x136 <= 1
 0 <= x137 <= 1
 0 <= x138 <= 1
 0 <= x139 <= 1
 0 <= x140 <= 1
 0 <= x141 <= 1
 0 <= x142 <= 1
 0 <= x143 <= 1
 0 <= x144 <= 1
 0 <= x145 <= 1
 0 <= x146 <= 1
 0 <= x147 <= 1
 0 <= x148 <= 1
 0 <= x149 <= 1
 0 <= x150 <= 1
 0 <= x151 <= 1
 0 <= x152 <= 1
 0 <= x153 <= 1
 0 <= x154 <= 1
 0 <= x155 <= 1
 0 <= x156 <= 1
 0 <= x157 <= 1
 0 <= x158 <= 1
 0 <= x159 <= 1
 0 <= x160 <= 1
 0 <= x161 <= 1
 0 <= x162 <= 1
 0 <= x163 <= 1
 0 <= x164 <= 1
 0 <= x165 <= 1
 0 <= x166 <= 1
 0 <= x167 <= 1
 0 <= x168 <= 1
 0 <= x169 <= 1
 0 <= x170 <= 1
 0 <= x171 <= 1
 0 <= x172 <= 1
 0 <= x173 <= 1
 0 <= x174 <= 1
 0 <= x175 <= 1
 0 <= x176 <= 1
 0 <= x177 <= 1
 0 <= x178 <= 1
 0 <= x179 <= 1
 0 <= x180 <= 1
 0 <= x181 <= 1
 0 <= x182 <= 1
 0 <= x183 <= 1
 0 <= x184 <= 1
 0 <= x185 <= 1
 0 <= x186 <= 1
 0 <= x187 <= 1
 0 <= x188 <= 1
 0 <= x189 <= 1
 0 <= x190 <= 1
 0 <= x191 <= 1
 0 <= x192 <= 1
 0 <= x193 <= 1
 0 <= x194 <= 1
 0 <= x195 <= 1
 0 <= x196 <= 1
 0 <= x197 <= 1
 0 <= x198 <= 1
 0 <= x199 <= 1
 0 <= x200 <= 1
 0 <= x201 <= 1
 0 <= x202 <= 1
 0 <= x203 <= 1
 0 <= x204 <= 1
 0 <= x205 <= 1
 0 <= x206 <= 1
 0 <= x207 <= 1
 0 <= x208 <= 1
 0 <= x209 <= 1
 0 <= x210 <= 1
 0 <= x211 <= 1
 0 <= x212 <= 1
 0 <= x213 <= 1
 0 <= x214 <= 1
 0 <= x215 <= 1
 0 <= x216 <= 1
 0 <= x217 <= 1
 0 <= x218 <= 1
 0 <= x219 <= 1
 0 <= x220 <= 1
 0 <= x221 <= 1
 0 <= x222 <= 1
 0 <= x223 <= 1
 0 <= x224 <= 1
 0 <= x225 <= 1
 0 <= x226 <= 1
 0 <= x227 <= 1
 0 <= x228 <= 1
 0 <= x229 <= 1
 0 <= x230 <= 1
 0 <= x231 <= 1
 0 <= x232 <= 1
 0 <= x233 <= 1
 0 <= x234 <= 1
 0 <= x235 <= 1
 0 <= x236 <= 1
 0 <= x237 <= 1
 0 <= x238 <= 1
 0 <= x239 <= 1
 0 <= x240 <= 1
 0 <= x241 <= 1
 0 <= x242 <= 1
 0 <= x243 <= 1
 0 <= x244 <= 1
 0 <= x245 <= 1
 0 <= x246 <= 1
 0 <= x247 <= 1
 0 <= x248 <= 1
 0 <= x249 <= 1
 0 <= x250 <= 1
 0 <= x251 <= 1
 0 <= x252 <= 1
 0 <= x253 <= 1
 0 <= x254 <= 1
 0 <= x255 <= 1
 0 <= x256 <= 1
 0 <= x257 <= 1
 0 <= x258 <= 1
 0 <= x259 <= 1
 0 <= x260 <= 1
 0 <= x261 <= 1
 0 <= x262 <= 1
 0 <= x263 <= 1
 0 <= x264 <= 1
 0 <= x265 <= 1
 0 <= x266 <= 1
 0 <= x267 <= 1
 0 <= x268 <= 1
 0 <= x269 <= 1
 0 <= x270 <= 1
 0 <= x271 <= 1
 0 <= x272 <= 1
 0 <= x273 <= 1
 0 <= x274 <= 1
 0 <= x275 <= 1
 0 <= x276 <= 1
 0 <= x277 <= 1
 0 <= x278 <= 1
 0 <= x279 <= 1
 0 <= x280 <= 1
 0 <= x281 <= 1
 0 <= x282 <= 1
 0 <= x283 <= 1
 0 <= x284 <= 1
 0 <= x285 <= 1
 0 <= x286 <= 1
 0 <= x287 <= 1
 0 <= x288 <= 1
 0 <= x289 <= 1
 0 <= x290 <= 1
 0 <= x291 <= 1
 0 <= x292 <= 1
 0 <= x293 <= 1
 0 <= x294 <= 1
 0 <= x295 <= 1
 0 <= x296 <= 1
 0 <= x297 <= 1
 0 <= x298 <= 1
 0 <= x299 <= 1
 0 <= x300 <= 1
 0 <= x301 <= 1
 0 <= x302 <= 1
 0 <= x303 <= 1
 0 <= x304 <= 1
 0 <= x305 <= 1
 0 <= x306 <= 1
 0 <= x307 <= 1
 0 <= x308 <= 1
 0 <= x309 <= 1
 0 <= x310 <= 1
 0 <= x311 <= 1
 0 <= x312 <= 1
 0 <= x313 <= 1
 0 <= x314 <= 1
 0 <= x315 <= 1
 0 <= x316 <= 1
 0 <= x317 <= 1
 0 <= x318 <= 1
 0 <= x319 <= 1
 0 <= x320 <= 1
 0 <= x321 <= 1
 0 <= x322 <= 1
 0 <= x323 <= 1
 0 <= x324 <= 1
 0 <= x325 <= 1
 0 <= x326 <= 1
 0 <= x327 <= 1
 0 <= x328 <= 1
 0 <= x329 <= 1
 0 <= x330 <= 1
 0 <= x331 <= 1
 0 <= x332 <= 1
 0 <= x333 <= 1
 0 <= x334 <= 1
 0 <= x335 <= 1
 0 <= x336 <= 1
 0 <= x337 <= 1
 0 <= x338 <= 1
 0 <= x339 <= 1
 0 <= x340 <= 1
 0 <= x341 <= 1
 0 <= x342 <= 1
 0 <= x343 <= 1
 0 <= x344 <= 1
 0 <= x345 <= 1
 0 <= x346 <= 1
 0 <= x347 <= 1
 0 <= x348 <= 1
 0 <= x349 <= 1
 0 <= x350 <= 1
 0 <= x351 <= 1
 0 <= x352 <= 1
 0 <= x353 <= 1
 0 <= x354 <= 1
 0 <= x355 <= 1
 0 <= x356 <= 1
 0 <= x357 <= 1
 0 <= x358 <= 1
 0 <= x359 <= 1
 0 <= x360 <= 1
 0 <= x361 <= 1
 0 <= x362 <= 1
 0 <= x363 <= 1
 0 <= x364 <= 1
 0 <= x365 <= 1
 0 <= x366 <= 1
 0 <= x367 <= 1
 0 <= x368 <= 1
 0 <= x369 <= 1
 0 <= x370 <= 1
 0 <= x371 <= 1
 0 <= x372 <= 1
 0 <= x373 <= 1
 0 <= x374 <= 1
 0 <= x375 <= 1
 0 <= x376 <= 1
 0 <= x377 <= 1
 0 <= x378 <= 1
 0 <= x379 <= 1
 0 <= x380 <= 1
 0 <= x381 <= 1
 0 <= x382 <= 1
 0 <= x383 <= 1
 0 <= x384 <= 1
 0 <= x385 <= 1
 0 <= x386 <= 1
 0 <= x387 <= 1
 0 <= x388 <= 1
 0 <= x389 <= 1
 0 <= x390 <= 1
 0 <= x391 <= 1
 0 <= x392 <= 1
 0 <= x393 <= 1
 0 <= x394 <= 1
 0 <= x395 <= 1
 0 <= x396 <= 1
 0 <= x397 <= 1
 0 <= x398 <= 1
 0 <= x399 <= 1
 0 <= x400 <= 1
 0 <= x401 <= 1
 0 <= x402 <= 1
 0 <= x403 <= 1
 0 <= x404 <= 1
 0 <= x405 <= 1
 0 <= x406 <= 1
 0 <= x407 <= 1
 0 <= x408 <= 1
 0 <= x409 <= 1
 0 <= x410 <= 1
 0 <= x411 <= 1
 0 <= x412 <= 1
 0 <= x413 <= 1
 0 <= x414 <= 1
 0 <= x415 <= 1
 0 <= x416 <= 1
 0 <= x417 <= 1
 0 <= x418 <= 1
 0 <= x419 <= 1
 0 <= x420 <= 1
 0 <= x421 <= 1
 0 <= x422 <= 1
 0 <= x423 <= 1
 0 <= x424 <= 1
 0 <= x425 <= 1
 0 <= x426 <= 1
 0 <= x427 <= 1
 0 <= x428 <= 1
 0 <= x429 <= 1
 0 <= x430 <= 1
 0 <= x431 <= 1
 0 <= x432 <= 1
 0 <= x433 <= 1
 0 <= x434 <= 1
 0 <= x435 <= 1
 0 <= x436 <= 1
 0 <= x437 <= 1
 0 <= x438 <= 1
 0 <= x439 <= 1
 0 <= x440 <= 1
 0 <= x441 <= 1
 0 <= x442 <= 1
 0 <= x443 <= 1
 0 <= x444 <= 1
 0 <= x445 <= 1
 0 <= x446 <= 1
 0 <= x447 <= 1
 0 <= x448 <= 1
 0 <= x449 <= 1
 0 <= x450 <= 1
 0 <= x451 <= 1
 0 <= x452 <= 1
 0 <= x453 <= 1
 0 <= x454 <= 1
 0 <= x455 <= 1
 0 <= x456 <= 1
 0 <= x457 <= 1
 0 <= x458 <= 1
 0 <= x459 <= 1
 0 <= x460 <= 1
 0 <= x461 <= 1
 0 <= x462 <= 1
 0 <= x463 <= 1
 0 <= x464 <= 1
 0 <= x465 <= 1
 0 <= x466 <= 1
 0 <= x903 <= 1
 0 <= x904 <= 1
 0 <= x905 <= 1
 0 <= x906 <= 1
 0 <= x907 <= 1
 0 <= x908 <= 1
 0 <= x909 <= 1
 0 <= x910 <= 1
 0 <= x911 <= 1
 0 <= x912 <= 1
 0 <= x913 <= 1
 0 <= x914 <= 1
 0 <= x915 <= 1
 0 <= x916 <= 1
 0 <= x917 <= 1
 0 <= x918 <= 1
 0 <= x919 <= 1
 0 <= x920 <= 1
 0 <= x921 <= 1
 0 <= x930 <= 1
 0 <= x931 <= 1
 0 <= x932 <= 1
 0 <= x933 <= 1
 0 <= x934 <= 1
 0 <= x935 <= 1
 0 <= x936 <= 1
 0 <= x937 <= 1
 0 <= x938 <= 1
 0 <= x939 <= 1
 0 <= x940 <= 1
 0 <= x941 <= 1
 0 <= x942 <= 1
 0 <= x956 <= 1
 0 <= x957 <= 1
 0 <= x958 <= 1
 0 <= x959 <= 1
 0 <= x964 <= 1
 0 <= x966 <= 1
 0 <= x967 <= 1
 0 <= x968 <= 1
 0 <= x969 <= 1
 0 <= x970 <= 1
 0 <= x971 <= 1
 0 <= x972 <= 1
 0 <= x980 <= 1
 0 <= x981 <= 1
 0 <= x982 <= 1
 0 <= x983 <= 1
 0 <= x984 <= 1
 0 <= x990 <= 1
 0 <= x991 <= 1
 0 <= x992 <= 1
 0 <= x993 <= 1
 0 <= x994 <= 1
 0 <= x1000 <= 1
 0 <= x1001 <= 1
 0 <= x1002 <= 1
 0 <= x1006 <= 1
 0 <= x1008 <= 1
 0 <= x1009 <= 1
 0 <= x1010 <= 1
 0 <= x1011 <= 1
 0 <= x1012 <= 1
Binaries
 x1  x2  x3  x4  x5  x6  x7  x8  x9  x10  x11  x12  x13  x14  x15  x31  x32 
 x33  x34  x35  x36  x37  x38  x39  x40  x41  x42  x43  x44  x45  x46  x47 
 x48  x49  x50  x51  x52  x53  x54  x55  x56  x57  x58  x59  x60  x61  x62 
 x63  x64  x65  x66  x67  x68  x69  x70  x71  x72  x73  x74  x75  x76  x77 
 x78  x79  x80  x81  x82  x83  x84  x85  x86  x87  x88  x89  x90  x91  x92 
 x93  x94  x95  x96  x97  x98  x99  x100  x101  x102  x103  x104  x105  x106 
 x107  x108  x109  x110  x111  x112  x113  x114  x115  x116  x117  x118  x119 
 x120  x121  x122  x123  x124  x125  x126  x127  x128  x129  x130  x131  x132 
 x133  x134  x135  x136  x137  x138  x139  x140  x141  x142  x143  x144  x145 
 x146  x147  x148  x149  x150  x151  x152  x153  x154  x155  x156  x157  x158 
 x159  x160  x161  x162  x163  x164  x165  x166  x167  x168  x169  x170  x171 
 x172  x173  x174  x175  x176  x177  x178  x179  x180  x181  x182  x183  x184 
 x185  x186  x187  x188  x189  x190  x191  x192  x193  x194  x195  x196  x197 
 x198  x199  x200  x201  x202  x203  x204  x205  x206  x207  x208  x209  x210 
 x211  x212  x213  x214  x215  x216  x217  x218  x219  x220  x221  x222  x223 
 x224  x225  x226  x227  x228  x229  x230  x231  x232  x233  x234  x235  x236 
 x237  x238  x239  x240  x241  x242  x243  x244  x245  x246  x247  x248  x249 
 x250  x251  x252  x253  x254  x255  x256  x257  x258  x259  x260  x261  x262 
 x263  x264  x265  x266  x267  x268  x269  x270  x271  x272  x273  x274  x275 
 x276  x277  x278  x279  x280  x281  x282  x283  x284  x285  x286  x287  x288 
 x289  x290  x291  x292  x293  x294  x295  x296  x297  x298  x299  x300  x301 
 x302  x303  x304  x305  x306  x307  x308  x309  x310  x311  x312  x313  x314 
 x315  x316  x317  x318  x319  x320  x321  x322  x323  x324  x325  x326  x327 
 x328  x329  x330  x331  x332  x333  x334  x335  x336  x337  x338  x339  x340 
 x341  x342  x343  x344  x345  x346  x347  x348  x349  x350  x351  x352  x353 
 x354  x355  x356  x357  x358  x359  x360  x361  x362  x363  x364  x365  x366 
 x367  x368  x369  x370  x371  x372  x373  x374  x375  x376  x377  x378  x379 
 x380  x381  x382  x383  x384  x385  x386  x387  x388  x389  x390  x391  x392 
 x393  x394  x395  x396  x397  x398  x399  x400  x401  x402  x403  x404  x405 
 x406  x407  x408  x409  x410  x411  x412  x413  x414  x415  x416  x417  x418 
 x419  x420  x421  x422  x423  x424  x425  x426  x427  x428  x429  x430  x431 
 x432  x433  x434  x435  x436  x437  x438  x439  x440  x441  x442  x443  x444 
 x445  x446  x447  x448  x449  x450  x451  x452  x453  x454  x455  x456  x457 
 x458  x459  x460  x461  x462  x463  x464  x465  x466  x903  x904  x905  x906 
 x907  x908  x909  x910  x911  x912  x913  x914  x915  x916  x917  x918  x919 
 x920  x921  x930  x931  x932  x933  x934  x935  x936  x937  x938  x939  x940 
 x941  x942  x956  x957  x958  x959  x964  x966  x967  x968  x969  x970  x971 
 x972  x980  x981  x982  x983  x984  x990  x991  x992  x993  x994  x1000 
 x1001  x1002  x1006  x1008  x1009  x1010  x1011  x1012 
End
